============================[ Problem Statistics ]=============================|                                                                             ||  Number of variables:          4242                                         ||  Number of clauses:           10266                                         ||  Parse time:                   0.65 s                                       ||                                                                             |============================[ Search Statistics ]==============================| Conflicts |          ORIGINAL         |          LEARNT          | Progress ||           |    Vars  Clauses Literals |    Limit  Clauses Lit/Cl |          |===============================================================================|       100 |    1591     6471  1042762 |     2372      100     53 | 62.501 % ||       250 |    1591     6471  1042762 |     2609      250     75 | 62.495 % |===============================================================================restarts              : 3conflicts             : 357            (362 /sec)decisions             : 622            (0.00 % random) (631 /sec)propagations          : 11969          (12139 /sec)conflict literals     : 29086          (94.62 % deleted)CPU time              : 0.986 sSATISFIABLE